c 1 CONFIG_LS
c 2 CONFIG_SORT_BIG
c 3 CONFIG_HELP
c 4 CONFIG_DHCPD
c 5 CONFIG_CHCON
c 6 CONFIG_SYSLOGD
c 7 CONFIG_W
c 8 CONFIG_TIME
c 9 CONFIG_TAIL
c 10 CONFIG_KLOGD_SOURCE_RING_BUFFER
c 11 CONFIG_SULOGIN
c 12 CONFIG_FGREP
c 13 CONFIG_MDEV_CONF
c 14 CONFIG_LOAD_POLICY
c 15 CONFIG_UNSHARE
c 16 CONFIG_SLEEP_FLOAT
c 17 CONFIG_TOYBOX_UID_SYS
c 18 CONFIG_EGREP
c 19 CONFIG_ID
c 20 CONFIG_SETENFORCE
c 21 CONFIG_HELP_EXTRAS
c 22 CONFIG_LOGIN
c 23 CONFIG_KILL
c 24 CONFIG_FSFREEZE
c 25 CONFIG_GREP
c 26 CONFIG_XARGS_PEDANTIC
c 27 CONFIG_TOYBOX_ICONV
c 28 CONFIG_CP_MORE
c 29 CONFIG_MKE2FS_EXTENDED
c 30 CONFIG_GZIP
c 31 CONFIG_WHO
c 32 CONFIG_TOYBOX_FIFREEZE
c 33 CONFIG_CP
c 34 CONFIG_LS_COLOR
c 35 CONFIG_TAIL_SEEK
c 36 CONFIG_RUNCON
c 37 CONFIG_LSPCI_TEXT
c 38 CONFIG_XARGS
c 39 CONFIG_MKE2FS_GEN
c 40 CONFIG_CAT
c 41 CONFIG_TOYBOX_SHADOW
c 42 CONFIG_TOYBOX_SELINUX
c 43 CONFIG_KLOGD
c 44 CONFIG_MKE2FS
c 45 CONFIG_LSPCI
c 46 CONFIG_GZIP_D
c 47 CONFIG_ICONV
c 48 CONFIG_GETENFORCE
c 49 CONFIG_TOYBOX_FLOAT
c 50 CONFIG_TOYBOX_HELP
c 51 CONFIG_PASSWD
c 52 CONFIG_GUNZIP
c 53 CONFIG_FALLOCATE
c 54 CONFIG_TOYBOX_UID_USR
c 55 CONFIG_TOYBOX_CONTAINER
c 56 CONFIG_NETCAT_LISTEN
c 57 CONFIG_MKE2FS_LABEL
c 58 CONFIG_SEQ
c 59 CONFIG_MV_MORE
c 60 CONFIG_SORT_FLOAT
c 61 CONFIG_DECOMPRESS
c 62 CONFIG_SU
c 63 CONFIG_SORT
c 64 CONFIG_CD
c 65 CONFIG_ZCAT
c 66 CONFIG_TIMEOUT
c 67 CONFIG_LOGGER
c 68 CONFIG_ID_SELINUX
c 69 CONFIG_EXIT
c 70 CONFIG_NETCAT
c 71 CONFIG_MV
c 72 CONFIG_UPTIME
c 73 CONFIG_INSTALL
c 74 CONFIG_TOYBOX
c 75 CONFIG_MKE2FS_JOURNAL
c 76 CONFIG_TOYBOX_UTMPX
c 77 CONFIG_SLEEP
c 78 CONFIG_CAT_V
c 79 CONFIG_DEBUG_DHCP
c 80 CONFIG_TOYBOX_FALLOCATE
c 81 CONFIG_COMPRESS
c 82 CONFIG_MDEV
c 83 CONFIG_KILLALL5
c 84 CONFIG_TOYBOX_HELP_DASHDASH
c 85 __Root__
p cnf 85 163
85 0
85 -49 0
85 -60 0
85 -66 0
85 -2 0
85 -41 0
85 -62 0
85 -42 0
85 -5 0
85 -33 0
85 -28 0
85 -73 0
85 -31 0
85 -76 0
85 -32 0
85 -52 0
85 -61 0
85 -67 0
85 -6 0
85 -36 0
85 -17 0
85 -54 0
85 -59 0
85 -18 0
85 -25 0
85 -80 0
85 -38 0
85 -26 0
85 -13 0
85 -82 0
85 -71 0
85 -44 0
85 -75 0
85 -24 0
85 -53 0
85 -20 0
85 -77 0
85 -16 0
85 -46 0
85 -29 0
85 -47 0
85 -27 0
85 -64 0
85 -70 0
85 -56 0
85 -39 0
85 -15 0
85 -55 0
85 -68 0
85 -50 0
85 -3 0
85 -84 0
85 -37 0
85 -45 0
85 -74 0
85 -21 0
85 -12 0
85 -4 0
85 -79 0
85 -19 0
85 -57 0
85 -1 0
85 -34 0
85 -78 0
85 -40 0
85 -7 0
85 -58 0
85 -23 0
85 -83 0
85 -11 0
85 -69 0
85 -30 0
85 -81 0
85 -51 0
85 -8 0
85 -14 0
85 -43 0
85 -10 0
85 -48 0
85 -22 0
85 -9 0
85 -35 0
85 -65 0
85 -72 0
85 -63 0
49 -60 0
-66 49 0
2 -60 0
41 -62 0
42 -5 0
33 -28 0
28 -73 0
-31 76 0
33 -73 0
32 0
-52 61 0
-67 6 0
-36 42 0
17 0
54 0
28 -59 0
-18 25 0
80 0
-49 -2 60 0
38 -26 0
-13 82 0
71 -59 0
44 -75 0
-24 32 0
80 -53 0
42 -20 0
77 -16 0
61 -46 0
-29 44 0
-47 27 0
-64 0
70 -56 0
44 -39 0
-15 55 0
-71 -28 59 0
-68 42 0
50 -3 0
50 -84 0
-37 45 0
74 -21 3 0
12 -25 0
-71 33 0
4 -79 0
-68 19 0
68 -19 -42 0
44 -57 0
55 0
1 -34 0
49 -16 0
27 0
41 0
-78 40 0
-12 25 0
-7 76 0
-58 49 0
23 -83 0
41 -11 0
74 -21 0
-69 0
-30 81 0
33 28 -73 0
41 -51 0
-30 -61 46 0
18 -25 0
49 -8 0
-14 42 0
43 -10 0
42 -48 0
41 -22 0
9 -35 0
76 0
61 -65 0
74 0
-49 -77 16 0
-21 3 0
30 -46 0
-72 76 0
-2 63 0
